Route #1: 1 18 41 45 4 50 25 50 17 24 57 24 42 44 2 31 1 
Route #2: 1 35 9 36 47 35 46 30 31 29 22 60 22 48 37 22 31 1 
Route #3: 1 35 53 28 16 58 16 14 16 21 16 38 16 6 49 31 1 
Route #4: 1 5 31 3 2 23 2 43 2 34 2 31 7 1 
Route #5: 1 41 59 39 12 39 11 39 54 20 55 20 15 20 8 35 1 
Route #6: 1 52 41 40 41 10 26 56 26 19 26 51 26 33 41 13 27 1 
Cost 883.0
